Maximize
F 

Subject to
F - 12.0y150 - 6.0y3 - 6.0y202 - 9.0y197 - 6.0y257 - 6.0y233 - 3.0y143 - 3.0y238 - 12.0y149 - 9.0y196 - 3.0y247 - 12.0y255 - 9.0y133 - 9.0y205 - 9.0y213 - 12.0y224 = 0

x268x150x1 + x268x257x1 + x268x233x1 + x268x143x1 + x268x149x1 + x268x247x1 + x268x255x1 + x268x205x1 
<= 1
x171x196x2 + x171x255x2 + x171x213x2 + x171x224x2 
<= 1
x168x196x2 + x168x255x2 + x168x213x2 + x168x224x2 
<= 1
x64x196x2 + x64x255x2 + x64x213x2 + x64x224x2 
<= 1
x77x196x2 + x77x255x2 + x77x213x2 + x77x224x2 
<= 2
x17x196x2 + x17x255x2 + x17x213x2 + x17x224x2 
<= 1
x36x196x2 + x36x255x2 + x36x213x2 + x36x224x2 
<= 1

x168x3x3 + x168x202x3 + x168x197x3 + x168x233x3 + x168x143x3 + x168x238x3 + x168x149x3 + x168x196x3 + x168x133x3 
<= 1
x39x233x3 + x39x196x3 + x39x133x3 
<= 2
x268x150x1 
- x150x0x1
- x150x257x1 - x150x233x1 - x150x143x1 - x150x247x1 - x150x205x1 
= 0


- x150x233x3 - x150x143x3 - x150x196x3 - x150x133x3 
= 0



x168x3x3 
- x3x0x3

= 0



x168x202x3 
- x202x0x3

= 0



x168x197x3 
- x197x0x3

= 0

x268x257x1 + x150x257x1 
- x257x0x1
- x257x233x1 - x257x247x1 
= 0



x268x233x1 + x150x233x1 + x257x233x1 
- x233x0x1
- x233x247x1 
= 0

x168x233x3 + x39x233x3 + x150x233x3 
- x233x0x3

= 0

x268x143x1 + x150x143x1 
- x143x0x1
- x143x247x1 
= 0

x168x143x3 + x150x143x3 
- x143x0x3
- x143x196x3 - x143x133x3 
= 0



x168x238x3 
- x238x0x3

= 0

x268x149x1 
- x149x0x1

= 0

x168x149x3 
- x149x0x3

= 0


x171x196x2 + x168x196x2 + x64x196x2 + x77x196x2 + x17x196x2 + x36x196x2 
- x196x0x2

= 0
x168x196x3 + x39x196x3 + x150x196x3 + x143x196x3 
- x196x0x3
- x196x133x3 
= 0

x268x247x1 + x150x247x1 + x257x247x1 + x233x247x1 + x143x247x1 
- x247x0x1

= 0



x268x255x1 
- x255x0x1

= 0
x171x255x2 + x168x255x2 + x64x255x2 + x77x255x2 + x17x255x2 + x36x255x2 
- x255x0x2

= 0




x168x133x3 + x39x133x3 + x150x133x3 + x143x133x3 + x196x133x3 
- x133x0x3

= 0

x268x205x1 + x150x205x1 
- x205x0x1

= 0




x171x213x2 + x168x213x2 + x64x213x2 + x77x213x2 + x17x213x2 + x36x213x2 
- x213x0x2

= 0



x171x224x2 + x168x224x2 + x64x224x2 + x77x224x2 + x17x224x2 + x36x224x2 
- x224x0x2

= 0


1y150 - x268x150x1 = 0
1y150 = 0
2y3 - x168x3x3 = 0
2y202 - x168x202x3 = 0
2y197 - x168x197x3 = 0
2y257 - x268x257x1 - x150x257x1 = 0
1y233 - x268x233x1 - x150x233x1 - x257x233x1 = 0
1y233 - x168x233x3 - x39x233x3 - x150x233x3 = 0
1y143 - x268x143x1 - x150x143x1 = 0
1y143 - x168x143x3 - x150x143x3 = 0
2y238 - x168x238x3 = 0
1y149 - x268x149x1 = 0
1y149 - x168x149x3 = 0
1y196 - x171x196x2 - x168x196x2 - x64x196x2 - x77x196x2 - x17x196x2 - x36x196x2 = 0
1y196 - x168x196x3 - x39x196x3 - x150x196x3 - x143x196x3 = 0
2y247 - x268x247x1 - x150x247x1 - x257x247x1 - x233x247x1 - x143x247x1 = 0
1y255 - x268x255x1 = 0
1y255 - x171x255x2 - x168x255x2 - x64x255x2 - x77x255x2 - x17x255x2 - x36x255x2 = 0
2y133 - x168x133x3 - x39x133x3 - x150x133x3 - x143x133x3 - x196x133x3 = 0
2y205 - x268x205x1 - x150x205x1 = 0
2y213 - x171x213x2 - x168x213x2 - x64x213x2 - x77x213x2 - x17x213x2 - x36x213x2 = 0
2y224 - x171x224x2 - x168x224x2 - x64x224x2 - x77x224x2 - x17x224x2 - x36x224x2 = 0

s171 - s196 + 9.312088z171z196z2 <= 7.89
s171 - s255 + 9.111891z171z255z2 <= 7.89
s171 - s213 + 9.343092z171z213z2 <= 7.89
s171 - s224 + 9.320451z171z224z2 <= 7.89
s168 - s3 + 9.209080z168z3z3 <= 7.98
s168 - s202 + 9.150318z168z202z3 <= 7.98
s168 - s197 + 9.297760z168z197z3 <= 7.98
s168 - s233 + 9.303747z168z233z3 <= 7.98
s168 - s143 + 9.329223z168z143z3 <= 7.98
s168 - s238 + 9.156015z168z238z3 <= 7.98
s168 - s149 + 9.274941z168z149z3 <= 7.98
s168 - s196 + 9.348259z168z196z2 <= 7.98
s168 - s196 + 9.348259z168z196z3 <= 7.98
s168 - s255 + 9.289717z168z255z2 <= 7.98
s168 - s133 + 9.348259z168z133z3 <= 7.98
s168 - s213 + 9.336622z168z213z2 <= 7.98
s168 - s224 + 9.324719z168z224z2 <= 7.98
s39 - s233 + 9.357935z39z233z3 <= 8.19
s39 - s196 + 9.433650z39z196z3 <= 8.19
s39 - s133 + 9.429547z39z133z3 <= 8.19
s64 - s196 + 8.193581z64z196z2 <= 6.75
s64 - s255 + 8.144451z64z255z2 <= 6.75
s64 - s213 + 8.404432z64z213z2 <= 6.75
s64 - s224 + 8.319263z64z224z2 <= 6.75
s77 - s196 + 8.964060z77z196z2 <= 7.61
s77 - s255 + 8.934797z77z255z2 <= 7.61
s77 - s213 + 9.116427z77z213z2 <= 7.61
s77 - s224 + 9.047853z77z224z2 <= 7.61
s17 - s196 + 9.203718z17z196z2 <= 7.68
s17 - s255 + 8.894847z17z255z2 <= 7.68
s17 - s213 + 9.329116z17z213z2 <= 7.68
s17 - s224 + 9.276820z17z224z2 <= 7.68
s268 - s150 + 9.178986z268z150z1 <= 7.70
s268 - s257 + 9.212317z268z257z1 <= 7.70
s268 - s233 + 9.186017z268z233z1 <= 7.70
s268 - s143 + 9.085951z268z143z1 <= 7.70
s268 - s149 + 9.403623z268z149z1 <= 7.70
s268 - s247 + 9.136407z268z247z1 <= 7.70
s268 - s255 + 9.236630z268z255z1 <= 7.70
s268 - s205 + 9.003571z268z205z1 <= 7.70
s36 - s196 + 9.319362z36z196z2 <= 7.76
s36 - s255 + 8.968855z36z255z2 <= 7.76
s36 - s213 + 9.445405z36z213z2 <= 7.76
s36 - s224 + 9.394026z36z224z2 <= 7.76
s150 - s257 + 10.233334z150z257z1 <= 9.20
s150 - s233 + 10.227488z150z233z1 <= 9.20
s150 - s233 + 10.227488z150z233z3 <= 9.20
s150 - s143 + 10.328062z150z143z1 <= 9.20
s150 - s143 + 10.328062z150z143z3 <= 9.20
s150 - s196 + 10.366667z150z196z3 <= 9.20
s150 - s247 + 10.281377z150z247z1 <= 9.20
s150 - s133 + 10.356205z150z133z3 <= 9.20
s150 - s205 + 10.436737z150z205z1 <= 9.20
s257 - s233 + 10.337712z257z233z1 <= 9.30
s257 - s247 + 10.404137z257z247z1 <= 9.30
s233 - s247 + 10.426666z233z247z1 <= 9.36
s143 - s196 + 10.418873z143z196z3 <= 9.38
s143 - s247 + 10.434975z143z247z1 <= 9.38
s143 - s133 + 10.408284z143z133z3 <= 9.38
s196 - s133 + 10.453333z196z133z3 <= 9.44

x171x196x2 - 1z171z196z2 <= 0
x171x255x2 - 1z171z255z2 <= 0
x171x213x2 - 2z171z213z2 <= 0
x171x224x2 - 2z171z224z2 <= 0
x168x3x3 - 2z168z3z3 <= 0
x168x202x3 - 2z168z202z3 <= 0
x168x197x3 - 2z168z197z3 <= 0
x168x233x3 - 1z168z233z3 <= 0
x168x143x3 - 1z168z143z3 <= 0
x168x238x3 - 2z168z238z3 <= 0
x168x149x3 - 1z168z149z3 <= 0
x168x196x2 - 1z168z196z2 <= 0
x168x196x3 - 1z168z196z3 <= 0
x168x255x2 - 1z168z255z2 <= 0
x168x133x3 - 2z168z133z3 <= 0
x168x213x2 - 2z168z213z2 <= 0
x168x224x2 - 2z168z224z2 <= 0
x39x233x3 - 1z39z233z3 <= 0
x39x196x3 - 1z39z196z3 <= 0
x39x133x3 - 2z39z133z3 <= 0
x64x196x2 - 1z64z196z2 <= 0
x64x255x2 - 1z64z255z2 <= 0
x64x213x2 - 2z64z213z2 <= 0
x64x224x2 - 2z64z224z2 <= 0
x77x196x2 - 1z77z196z2 <= 0
x77x255x2 - 1z77z255z2 <= 0
x77x213x2 - 2z77z213z2 <= 0
x77x224x2 - 2z77z224z2 <= 0
x17x196x2 - 1z17z196z2 <= 0
x17x255x2 - 1z17z255z2 <= 0
x17x213x2 - 2z17z213z2 <= 0
x17x224x2 - 2z17z224z2 <= 0
x268x150x1 - 1z268z150z1 <= 0
x268x257x1 - 2z268z257z1 <= 0
x268x233x1 - 1z268z233z1 <= 0
x268x143x1 - 1z268z143z1 <= 0
x268x149x1 - 1z268z149z1 <= 0
x268x247x1 - 2z268z247z1 <= 0
x268x255x1 - 1z268z255z1 <= 0
x268x205x1 - 2z268z205z1 <= 0
x36x196x2 - 1z36z196z2 <= 0
x36x255x2 - 1z36z255z2 <= 0
x36x213x2 - 2z36z213z2 <= 0
x36x224x2 - 2z36z224z2 <= 0
x150x257x1 - 2z150z257z1 <= 0
x150x233x1 - 1z150z233z1 <= 0
x150x233x3 - 1z150z233z3 <= 0
x150x143x1 - 1z150z143z1 <= 0
x150x143x3 - 1z150z143z3 <= 0
x150x196x3 - 1z150z196z3 <= 0
x150x247x1 - 2z150z247z1 <= 0
x150x133x3 - 2z150z133z3 <= 0
x150x205x1 - 2z150z205z1 <= 0
x150x0x1 <= 1
x150x0x3 <= 1
x3x0x3 <= 2
x202x0x3 <= 2
x197x0x3 <= 2
x257x233x1 - 1z257z233z1 <= 0
x257x247x1 - 2z257z247z1 <= 0
x257x0x1 <= 2
x233x247x1 - 2z233z247z1 <= 0
x233x0x1 <= 1
x233x0x3 <= 1
x143x196x3 - 1z143z196z3 <= 0
x143x247x1 - 2z143z247z1 <= 0
x143x133x3 - 2z143z133z3 <= 0
x143x0x1 <= 1
x143x0x3 <= 1
x238x0x3 <= 2
x149x0x1 <= 1
x149x0x3 <= 1
x196x133x3 - 2z196z133z3 <= 0
x196x0x2 <= 1
x196x0x3 <= 1
x247x0x1 <= 2
x255x0x1 <= 1
x255x0x2 <= 1
x133x0x3 <= 2
x205x0x1 <= 2
x213x0x2 <= 2
x224x0x2 <= 2

s150 - 6.00z268z150z1 >= 0
s3 - 6.00z168z3z3 >= 0
s202 - 6.00z168z202z3 >= 0
s197 - 6.00z168z197z3 >= 0
s257 - 6.00z268z257z1 >= 0
s257 - 6.00z150z257z1 >= 0
s233 - 6.00z168z233z3 >= 0
s233 - 6.00z39z233z3 >= 0
s233 - 6.00z268z233z1 >= 0
s233 - 6.00z150z233z1 >= 0
s233 - 6.00z150z233z3 >= 0
s233 - 6.00z257z233z1 >= 0
s143 - 6.00z168z143z3 >= 0
s143 - 6.00z268z143z1 >= 0
s143 - 6.00z150z143z1 >= 0
s143 - 6.00z150z143z3 >= 0
s238 - 6.00z168z238z3 >= 0
s149 - 6.00z168z149z3 >= 0
s149 - 6.00z268z149z1 >= 0
s196 - 6.00z171z196z2 >= 0
s196 - 6.00z168z196z2 >= 0
s196 - 6.00z168z196z3 >= 0
s196 - 6.00z39z196z3 >= 0
s196 - 6.00z64z196z2 >= 0
s196 - 6.00z77z196z2 >= 0
s196 - 6.00z17z196z2 >= 0
s196 - 6.00z36z196z2 >= 0
s196 - 6.00z150z196z3 >= 0
s196 - 6.00z143z196z3 >= 0
s247 - 6.00z268z247z1 >= 0
s247 - 6.00z150z247z1 >= 0
s247 - 6.00z257z247z1 >= 0
s247 - 6.00z233z247z1 >= 0
s247 - 6.00z143z247z1 >= 0
s255 - 6.00z171z255z2 >= 0
s255 - 6.00z168z255z2 >= 0
s255 - 6.00z64z255z2 >= 0
s255 - 6.00z77z255z2 >= 0
s255 - 6.00z17z255z2 >= 0
s255 - 6.00z268z255z1 >= 0
s255 - 6.00z36z255z2 >= 0
s133 - 6.00z168z133z3 >= 0
s133 - 6.00z39z133z3 >= 0
s133 - 6.00z150z133z3 >= 0
s133 - 6.00z143z133z3 >= 0
s133 - 6.00z196z133z3 >= 0
s205 - 6.00z268z205z1 >= 0
s205 - 6.00z150z205z1 >= 0
s213 - 6.00z171z213z2 >= 0
s213 - 6.00z168z213z2 >= 0
s213 - 6.00z64z213z2 >= 0
s213 - 6.00z77z213z2 >= 0
s213 - 6.00z17z213z2 >= 0
s213 - 6.00z36z213z2 >= 0
s224 - 6.00z171z224z2 >= 0
s224 - 6.00z168z224z2 >= 0
s224 - 6.00z64z224z2 >= 0
s224 - 6.00z77z224z2 >= 0
s224 - 6.00z17z224z2 >= 0
s224 - 6.00z36z224z2 >= 0

Bounds
s171 = 7.891084
s168 = 7.981532
s39 = 8.193280
s263 = 8.540910
s8 = 8.258811
s114 = 8.863485
s189 = 8.953974
s28 = 8.722232
s86 = 8.861792
s88 = 9.100421
s218 = 9.104311
s64 = 6.747910
s156 = 6.467700
s77 = 7.614520
s17 = 7.682140
s268 = 7.698940
s36 = 7.756670
8.200000 <= s150 <= 9.200000
8.220000 <= s3 <= 9.220000
8.270000 <= s202 <= 9.270000
8.300000 <= s197 <= 9.300000
8.300000 <= s257 <= 9.300000
8.360000 <= s233 <= 9.360000
8.380000 <= s143 <= 9.380000
8.420000 <= s238 <= 9.420000
8.440000 <= s149 <= 9.440000
8.440000 <= s196 <= 9.440000
8.450000 <= s247 <= 9.450000
8.450000 <= s255 <= 9.450000
8.470000 <= s133 <= 9.470000
8.470000 <= s205 <= 9.470000
8.490000 <= s213 <= 9.490000
8.500000 <= s224 <= 9.500000

General
x171x196x2 x171x255x2 x171x213x2 x171x224x2 
x168x3x3 x168x202x3 x168x197x3 x168x233x3 x168x143x3 x168x238x3 x168x149x3 x168x196x2 x168x196x3 x168x255x2 x168x133x3 x168x213x2 x168x224x2 
x39x233x3 x39x196x3 x39x133x3 








x64x196x2 x64x255x2 x64x213x2 x64x224x2 

x77x196x2 x77x255x2 x77x213x2 x77x224x2 
x17x196x2 x17x255x2 x17x213x2 x17x224x2 
x268x150x1 x268x257x1 x268x233x1 x268x143x1 x268x149x1 x268x247x1 x268x255x1 x268x205x1 
x36x196x2 x36x255x2 x36x213x2 x36x224x2 
x150x257x1 x150x233x1 x150x233x3 x150x143x1 x150x143x3 x150x196x3 x150x247x1 x150x133x3 x150x205x1 x150x0x1 x150x0x3 
x3x0x3 
x202x0x3 
x197x0x3 
x257x233x1 x257x247x1 x257x0x1 
x233x247x1 x233x0x1 x233x0x3 
x143x196x3 x143x247x1 x143x133x3 x143x0x1 x143x0x3 
x238x0x3 
x149x0x1 x149x0x3 
x196x133x3 x196x0x2 x196x0x3 
x247x0x1 
x255x0x1 x255x0x2 
x133x0x3 
x205x0x1 
x213x0x2 
x224x0x2 

Binaries
y150 y3 y202 y197 y257 y233 y143 y238 y149 y196 y247 y255 y133 y205 y213 y224 
z171z196z2 z171z255z2 z171z213z2 z171z224z2 
z168z3z3 z168z202z3 z168z197z3 z168z233z3 z168z143z3 z168z238z3 z168z149z3 z168z196z2 z168z196z3 z168z255z2 z168z133z3 z168z213z2 z168z224z2 
z39z233z3 z39z196z3 z39z133z3 








z64z196z2 z64z255z2 z64z213z2 z64z224z2 

z77z196z2 z77z255z2 z77z213z2 z77z224z2 
z17z196z2 z17z255z2 z17z213z2 z17z224z2 
z268z150z1 z268z257z1 z268z233z1 z268z143z1 z268z149z1 z268z247z1 z268z255z1 z268z205z1 
z36z196z2 z36z255z2 z36z213z2 z36z224z2 
z150z257z1 z150z233z1 z150z233z3 z150z143z1 z150z143z3 z150z196z3 z150z247z1 z150z133z3 z150z205z1 



z257z233z1 z257z247z1 
z233z247z1 
z143z196z3 z143z247z1 z143z133z3 


z196z133z3 







End